47.05 15.27
41.27 15.34
41.07 16.52
40.28 17.15
38.11 15.33
37.3 15.06
46.05 18.13
46.15 20.09
45.45 21.13
46.47 23.36
47.1 27.35
45.48 24.09
45.39 25.37
44.26 26.06
44.11 28.39
45.48 15.58
43.31 16.27
43.52 18.25
44.5 20.3
42.38 18.07
41.59 21.26
41.2 19.5
42.41 23.19
42.09 24.45
43.13 27.55
42.3 27.28
39.36 19.56
40.38 22.56
38.15 21.44
37.58 23.43
46.28 30.44
44.36 33.32
47.14 39.42
46.21 48.03
41.43 44.49
40.11 44.3
40.23 49.51
41.01 28.58
38.25 27.09
39.56 32.52
38.43 35.3
39.45 37.02
39.55 41.17
37.55 40.14
37.01 35.18
36.12 37.1
36.2 43.08
38.05 46.18
37.16 49.36
36.18 59.36
